objective value:                                12157
t_x_0                                               1 	(obj:34)
t_x_2                                               1 	(obj:12)
t_x_5                                               1 	(obj:54)
t_x_9                                               1 	(obj:20)
t_x_15                                              1 	(obj:59)
t_x_17                                              1 	(obj:4)
t_x_18                                              1 	(obj:28)
t_x_19                                              1 	(obj:4)
t_x_20                                              1 	(obj:11)
t_x_29                                              1 	(obj:30)
t_x_32                                              1 	(obj:36)
t_x_33                                              1 	(obj:3)
t_x_35                                              1 	(obj:20)
t_x_38                                              1 	(obj:0)
t_x_39                                              1 	(obj:23)
t_x_41                                              1 	(obj:35)
t_x_47                                              1 	(obj:19)
t_x_49                                              1 	(obj:7)
t_x_51                                              1 	(obj:17)
t_x_53                                              1 	(obj:11)
t_x_57                                              1 	(obj:8)
t_x_60                                              1 	(obj:32)
t_x_61                                              1 	(obj:20)
t_x_63                                              1 	(obj:38)
t_x_64                                              1 	(obj:22)
t_x_65                                              1 	(obj:32)
t_x_69                                              1 	(obj:21)
t_x_73                                              1 	(obj:52)
t_x_74                                              1 	(obj:57)
t_x_75                                              1 	(obj:60)
t_x_77                                              1 	(obj:16)
t_x_79                                              1 	(obj:11)
t_x_81                                              1 	(obj:19)
t_x_83                                              1 	(obj:6)
t_x_85                                              1 	(obj:52)
t_x_87                                              1 	(obj:1)
t_x_89                                              1 	(obj:17)
t_x_90                                              1 	(obj:46)
t_x_94                                              1 	(obj:22)
t_x_95                                              1 	(obj:13)
t_x_96                                              1 	(obj:23)
t_x_99                                              1 	(obj:0)
t_x_104                                             1 	(obj:11)
t_x_105                                             1 	(obj:32)
t_x_112                                             1 	(obj:5)
t_x_115                                             1 	(obj:53)
t_x_117                                             1 	(obj:26)
t_x_119                                             1 	(obj:15)
t_x_123                                             1 	(obj:37)
t_x_124                                             1 	(obj:2)
t_x_128                                             1 	(obj:6)
t_x_138                                             1 	(obj:21)
t_x_144                                             1 	(obj:25)
t_x_147                                             1 	(obj:16)
t_x_155                                             1 	(obj:44)
t_x_156                                             1 	(obj:12)
t_x_160                                             1 	(obj:33)
t_x_165                                             1 	(obj:51)
t_x_166                                             1 	(obj:19)
t_x_173                                             1 	(obj:25)
t_x_176                                             1 	(obj:22)
t_x_179                                             1 	(obj:39)
t_x_182                                             1 	(obj:19)
t_x_184                                             1 	(obj:1)
t_x_185                                             1 	(obj:19)
t_x_187                                             1 	(obj:4)
t_x_189                                             1 	(obj:51)
t_x_193                                             1 	(obj:33)
t_x_196                                             1 	(obj:17)
t_x_197                                             1 	(obj:16)
t_x_199                                             1 	(obj:7)
t_x_202                                             1 	(obj:20)
t_x_203                                             1 	(obj:26)
t_x_204                                             1 	(obj:24)
t_x_206                                             1 	(obj:6)
t_x_209                                             1 	(obj:16)
t_x_212                                             1 	(obj:34)
t_x_213                                             1 	(obj:10)
t_x_214                                             1 	(obj:15)
t_x_221                                             1 	(obj:38)
t_x_223                                             1 	(obj:0)
t_x_235                                             1 	(obj:22)
t_x_240                                             1 	(obj:3)
t_x_242                                             1 	(obj:5)
t_x_247                                             1 	(obj:9)
t_x_256                                             1 	(obj:23)
t_x_258                                             1 	(obj:30)
t_x_263                                             1 	(obj:12)
t_x_266                                             1 	(obj:13)
t_x_271                                             1 	(obj:25)
t_x_275                                             1 	(obj:6)
t_x_278                                             1 	(obj:2)
t_x_279                                             1 	(obj:13)
t_x_283                                             1 	(obj:28)
t_x_285                                             1 	(obj:18)
t_x_290                                             1 	(obj:14)
t_x_293                                             1 	(obj:1)
t_x_301                                             1 	(obj:11)
t_x_303                                             1 	(obj:10)
t_x_305                                             1 	(obj:48)
t_x_307                                             1 	(obj:52)
t_x_320                                             1 	(obj:10)
t_x_327                                             1 	(obj:3)
t_x_332                                             1 	(obj:30)
t_x_335                                             1 	(obj:10)
t_x_338                                             1 	(obj:24)
t_x_341                                             1 	(obj:6)
t_x_349                                             1 	(obj:9)
t_x_350                                             1 	(obj:26)
t_x_352                                             1 	(obj:27)
t_x_355                                             1 	(obj:85)
t_x_356                                             1 	(obj:16)
t_x_359                                             1 	(obj:38)
t_x_360                                             1 	(obj:33)
t_x_365                                             1 	(obj:8)
t_x_366                                             1 	(obj:4)
t_x_367                                             1 	(obj:29)
t_x_374                                             1 	(obj:19)
t_x_376                                             1 	(obj:19)
t_x_377                                             1 	(obj:4)
t_x_382                                             1 	(obj:14)
t_x_383                                             1 	(obj:11)
t_x_385                                             1 	(obj:39)
t_x_387                                             1 	(obj:15)
t_x_390                                             1 	(obj:11)
t_x_391                                             1 	(obj:4)
t_x_393                                             1 	(obj:29)
t_x_395                                             1 	(obj:40)
t_x_398                                             1 	(obj:43)
t_x_400                                             1 	(obj:22)
t_x_404                                             1 	(obj:9)
t_x_405                                             1 	(obj:11)
t_x_408                                             1 	(obj:2)
t_x_414                                             1 	(obj:14)
t_x_419                                             1 	(obj:6)
t_x_427                                             1 	(obj:5)
t_x_432                                             1 	(obj:9)
t_x_436                                             1 	(obj:12)
t_x_437                                             1 	(obj:12)
t_x_445                                             1 	(obj:32)
t_x_447                                             1 	(obj:45)
t_x_453                                             1 	(obj:12)
t_x_457                                             1 	(obj:19)
t_x_459                                             1 	(obj:14)
t_x_462                                             1 	(obj:11)
t_x_464                                             1 	(obj:26)
t_x_467                                             1 	(obj:59)
t_x_471                                             1 	(obj:62)
t_x_475                                             1 	(obj:1)
t_x_477                                             1 	(obj:29)
t_x_480                                             1 	(obj:10)
t_x_482                                             1 	(obj:2)
t_x_483                                             1 	(obj:16)
t_x_486                                             1 	(obj:10)
t_x_492                                             1 	(obj:9)
t_x_496                                             1 	(obj:14)
t_x_505                                             1 	(obj:9)
t_x_507                                             1 	(obj:4)
t_x_515                                             1 	(obj:14)
t_x_521                                             1 	(obj:18)
t_x_524                                             1 	(obj:11)
t_x_527                                             1 	(obj:35)
t_x_535                                             1 	(obj:20)
t_x_541                                             1 	(obj:48)
t_x_542                                             1 	(obj:9)
t_x_543                                             1 	(obj:6)
t_x_546                                             1 	(obj:17)
t_x_550                                             1 	(obj:24)
t_x_555                                             1 	(obj:47)
t_x_562                                             1 	(obj:3)
t_x_564                                             1 	(obj:13)
t_x_565                                             1 	(obj:5)
t_x_568                                             1 	(obj:21)
t_x_570                                             1 	(obj:49)
t_x_571                                             1 	(obj:19)
t_x_573                                             1 	(obj:37)
t_x_579                                             1 	(obj:12)
t_x_580                                             1 	(obj:21)
t_x_583                                             1 	(obj:16)
t_x_586                                             1 	(obj:10)
t_x_589                                             1 	(obj:11)
t_x_591                                             1 	(obj:28)
t_x_593                                             1 	(obj:9)
t_x_595                                             1 	(obj:12)
t_x_600                                             1 	(obj:6)
t_x_601                                             1 	(obj:6)
t_x_602                                             1 	(obj:11)
t_x_605                                             1 	(obj:3)
t_x_606                                             1 	(obj:39)
t_x_607                                             1 	(obj:15)
t_x_616                                             1 	(obj:49)
t_x_617                                             1 	(obj:51)
t_x_620                                             1 	(obj:0)
t_x_622                                             1 	(obj:34)
t_x_623                                             1 	(obj:2)
t_x_626                                             1 	(obj:1)
t_x_631                                             1 	(obj:10)
t_x_641                                             1 	(obj:10)
t_x_642                                             1 	(obj:12)
t_x_644                                             1 	(obj:8)
t_x_646                                             1 	(obj:5)
t_x_651                                             1 	(obj:7)
t_x_654                                             1 	(obj:3)
t_x_658                                             1 	(obj:29)
t_x_661                                             1 	(obj:26)
t_x_665                                             1 	(obj:25)
t_x_667                                             1 	(obj:20)
t_x_670                                             1 	(obj:20)
t_x_673                                             1 	(obj:7)
t_x_679                                             1 	(obj:8)
t_x_680                                             1 	(obj:25)
t_x_689                                             1 	(obj:24)
t_x_693                                             1 	(obj:32)
t_x_697                                             1 	(obj:21)
t_x_698                                             1 	(obj:28)
t_x_699                                             1 	(obj:1)
t_x_702                                             1 	(obj:19)
t_x_703                                             1 	(obj:18)
t_x_705                                             1 	(obj:19)
t_x_714                                             1 	(obj:6)
t_x_716                                             1 	(obj:35)
t_x_717                                             1 	(obj:4)
t_x_723                                             1 	(obj:6)
t_x_724                                             1 	(obj:37)
t_x_725                                             1 	(obj:10)
t_x_728                                             1 	(obj:8)
t_x_731                                             1 	(obj:8)
t_x_733                                             1 	(obj:16)
t_x_735                                             1 	(obj:32)
t_x_737                                             1 	(obj:5)
t_x_741                                             1 	(obj:6)
t_x_742                                             1 	(obj:28)
t_x_746                                             1 	(obj:21)
t_x_747                                             1 	(obj:4)
t_x_750                                             1 	(obj:1)
t_x_755                                             1 	(obj:41)
t_x_759                                             1 	(obj:0)
t_x_760                                             1 	(obj:26)
t_x_761                                             1 	(obj:5)
t_x_763                                             1 	(obj:32)
t_x_764                                             1 	(obj:2)
t_x_765                                             1 	(obj:19)
t_x_772                                             1 	(obj:13)
t_x_773                                             1 	(obj:29)
t_x_774                                             1 	(obj:12)
t_x_779                                             1 	(obj:4)
t_x_788                                             1 	(obj:14)
t_x_790                                             1 	(obj:21)
t_x_792                                             1 	(obj:22)
t_x_793                                             1 	(obj:24)
t_x_794                                             1 	(obj:24)
t_x_799                                             1 	(obj:27)
t_x_809                                             1 	(obj:11)
t_x_812                                             1 	(obj:17)
t_x_813                                             1 	(obj:1)
t_x_815                                             1 	(obj:5)
t_x_819                                             1 	(obj:17)
t_x_826                                             1 	(obj:17)
t_x_827                                             1 	(obj:7)
t_x_834                                             1 	(obj:36)
t_x_841                                             1 	(obj:18)
t_x_846                                             1 	(obj:7)
t_x_848                                             1 	(obj:40)
t_x_850                                             1 	(obj:8)
t_x_852                                             1 	(obj:47)
t_x_854                                             1 	(obj:11)
t_x_857                                             1 	(obj:14)
t_x_861                                             1 	(obj:28)
t_x_862                                             1 	(obj:25)
t_x_863                                             1 	(obj:42)
t_x_869                                             1 	(obj:49)
t_x_873                                             1 	(obj:3)
t_x_877                                             1 	(obj:37)
t_x_879                                             1 	(obj:1)
t_x_883                                             1 	(obj:25)
t_x_888                                             1 	(obj:1)
t_x_889                                             1 	(obj:18)
t_x_890                                             1 	(obj:6)
t_x_892                                             1 	(obj:3)
t_x_895                                             1 	(obj:23)
t_x_898                                             1 	(obj:36)
t_x_899                                             1 	(obj:3)
t_x_900                                             1 	(obj:11)
t_x_904                                             1 	(obj:16)
t_x_917                                             1 	(obj:41)
t_x_920                                             1 	(obj:2)
t_x_927                                             1 	(obj:53)
t_x_928                                             1 	(obj:54)
t_x_930                                             1 	(obj:8)
t_x_935                                             1 	(obj:11)
t_x_936                                             1 	(obj:32)
t_x_942                                             1 	(obj:3)
t_x_944                                             1 	(obj:31)
t_x_946                                             1 	(obj:76)
t_x_947                                             1 	(obj:18)
t_x_955                                             1 	(obj:37)
t_x_962                                             1 	(obj:16)
t_x_964                                             1 	(obj:34)
t_x_965                                             1 	(obj:6)
t_x_968                                             1 	(obj:16)
t_x_969                                             1 	(obj:54)
t_x_971                                             1 	(obj:3)
t_x_973                                             1 	(obj:10)
t_x_974                                             1 	(obj:29)
t_x_977                                             1 	(obj:18)
t_x_981                                             1 	(obj:9)
t_x_984                                             1 	(obj:22)
t_x_988                                             1 	(obj:0)
t_x_997                                             1 	(obj:61)
t_x_999                                             1 	(obj:2)
t_x_1001                                            1 	(obj:1)
t_x_1002                                            1 	(obj:14)
t_x_1009                                            1 	(obj:48)
t_x_1010                                            1 	(obj:26)
t_x_1011                                            1 	(obj:11)
t_x_1024                                            1 	(obj:6)
t_x_1025                                            1 	(obj:18)
t_x_1026                                            1 	(obj:37)
t_x_1027                                            1 	(obj:7)
t_x_1032                                            1 	(obj:7)
t_x_1033                                            1 	(obj:11)
t_x_1034                                            1 	(obj:0)
t_x_1039                                            1 	(obj:5)
t_x_1043                                            1 	(obj:11)
t_x_1046                                            1 	(obj:19)
t_x_1048                                            1 	(obj:20)
t_x_1049                                            1 	(obj:8)
t_x_1050                                            1 	(obj:34)
t_x_1055                                            1 	(obj:6)
t_x_1056                                            1 	(obj:29)
t_x_1057                                            1 	(obj:0)
t_x_1059                                            1 	(obj:14)
t_x_1060                                            1 	(obj:37)
t_x_1061                                            1 	(obj:9)
t_x_1062                                            1 	(obj:22)
t_x_1063                                            1 	(obj:54)
t_x_1069                                            1 	(obj:45)
t_x_1079                                            1 	(obj:20)
t_x_1083                                            1 	(obj:23)
t_x_1088                                            1 	(obj:14)
t_x_1091                                            1 	(obj:4)
t_x_1096                                            1 	(obj:5)
t_x_1097                                            1 	(obj:6)
t_x_1099                                            1 	(obj:7)
t_x_1101                                            1 	(obj:38)
t_x_1111                                            1 	(obj:0)
t_x_1116                                            1 	(obj:65)
t_x_1118                                            1 	(obj:30)
t_x_1122                                            1 	(obj:18)
t_x_1123                                            1 	(obj:3)
t_x_1124                                            1 	(obj:25)
t_x_1127                                            1 	(obj:16)
t_x_1128                                            1 	(obj:24)
t_x_1129                                            1 	(obj:9)
t_x_1133                                            1 	(obj:11)
t_x_1142                                            1 	(obj:2)
t_x_1144                                            1 	(obj:31)
t_x_1145                                            1 	(obj:39)
t_x_1150                                            1 	(obj:30)
t_x_1153                                            1 	(obj:31)
t_x_1158                                            1 	(obj:44)
t_x_1160                                            1 	(obj:31)
t_x_1162                                            1 	(obj:3)
t_x_1170                                            1 	(obj:19)
t_x_1171                                            1 	(obj:4)
t_x_1178                                            1 	(obj:33)
t_x_1180                                            1 	(obj:40)
t_x_1182                                            1 	(obj:5)
t_x_1189                                            1 	(obj:17)
t_x_1196                                            1 	(obj:6)
t_x_1198                                            1 	(obj:12)
t_x_1201                                            1 	(obj:5)
t_x_1204                                            1 	(obj:35)
t_x_1206                                            1 	(obj:8)
t_x_1207                                            1 	(obj:8)
t_x_1208                                            1 	(obj:35)
t_x_1209                                            1 	(obj:24)
t_x_1214                                            1 	(obj:41)
t_x_1221                                            1 	(obj:56)
t_x_1222                                            1 	(obj:11)
t_x_1223                                            1 	(obj:9)
t_x_1232                                            1 	(obj:43)
t_x_1236                                            1 	(obj:7)
t_x_1237                                            1 	(obj:29)
t_x_1240                                            1 	(obj:48)
t_x_1241                                            1 	(obj:10)
t_x_1248                                            1 	(obj:32)
t_x_1252                                            1 	(obj:20)
t_x_1253                                            1 	(obj:21)
t_x_1256                                            1 	(obj:25)
t_x_1261                                            1 	(obj:10)
t_x_1263                                            1 	(obj:0)
t_x_1264                                            1 	(obj:14)
t_x_1266                                            1 	(obj:44)
t_x_1268                                            1 	(obj:33)
t_x_1271                                            1 	(obj:16)
t_x_1273                                            1 	(obj:16)
t_x_1274                                            1 	(obj:69)
t_x_1278                                            1 	(obj:55)
t_x_1281                                            1 	(obj:5)
t_x_1285                                            1 	(obj:21)
t_x_1286                                            1 	(obj:6)
t_x_1289                                            1 	(obj:38)
t_x_1291                                            1 	(obj:52)
t_x_1292                                            1 	(obj:23)
t_x_1294                                            1 	(obj:24)
t_x_1295                                            1 	(obj:36)
t_x_1296                                            1 	(obj:35)
t_x_1301                                            1 	(obj:17)
t_x_1304                                            1 	(obj:3)
t_x_1306                                            1 	(obj:44)
t_x_1308                                            1 	(obj:3)
t_x_1309                                            1 	(obj:0)
t_x_1311                                            1 	(obj:4)
t_x_1316                                            1 	(obj:40)
t_x_1320                                            1 	(obj:10)
t_x_1328                                            1 	(obj:7)
t_x_1332                                            1 	(obj:53)
t_x_1336                                            1 	(obj:27)
t_x_1340                                            1 	(obj:1)
t_x_1342                                            1 	(obj:2)
t_x_1345                                            1 	(obj:23)
t_x_1346                                            1 	(obj:2)
t_x_1349                                            1 	(obj:12)
t_x_1350                                            1 	(obj:2)
t_x_1351                                            1 	(obj:16)
t_x_1355                                            1 	(obj:1)
t_x_1359                                            1 	(obj:24)
t_x_1360                                            1 	(obj:15)
t_x_1366                                            1 	(obj:10)
t_x_1367                                            1 	(obj:66)
t_x_1372                                            1 	(obj:16)
t_x_1382                                            1 	(obj:5)
t_x_1391                                            1 	(obj:83)
t_x_1393                                            1 	(obj:8)
t_x_1394                                            1 	(obj:42)
t_x_1397                                            1 	(obj:13)
t_x_1408                                            1 	(obj:5)
t_x_1410                                            1 	(obj:24)
t_x_1414                                            1 	(obj:28)
t_x_1421                                            1 	(obj:10)
t_x_1424                                            1 	(obj:12)
t_x_1429                                            1 	(obj:35)
t_x_1430                                            1 	(obj:23)
t_x_1432                                            1 	(obj:8)
t_x_1439                                            1 	(obj:26)
t_x_1445                                            1 	(obj:11)
t_x_1449                                            1 	(obj:8)
t_x_1451                                            1 	(obj:17)
t_x_1454                                            1 	(obj:22)
t_x_1456                                            1 	(obj:35)
t_x_1457                                            1 	(obj:6)
t_x_1458                                            1 	(obj:9)
t_x_1459                                            1 	(obj:1)
t_x_1464                                            1 	(obj:27)
t_x_1476                                            1 	(obj:9)
t_x_1483                                            1 	(obj:20)
t_x_1487                                            1 	(obj:20)
t_x_1491                                            1 	(obj:10)
t_x_1498                                            1 	(obj:1)
t_x_1501                                            1 	(obj:13)
t_x_1506                                            1 	(obj:16)
t_x_1512                                            1 	(obj:28)
t_x_1516                                            1 	(obj:4)
t_x_1517                                            1 	(obj:8)
t_x_1518                                            1 	(obj:3)
t_x_1527                                            1 	(obj:21)
t_x_1530                                            1 	(obj:6)
t_x_1532                                            1 	(obj:1)
t_x_1533                                            1 	(obj:16)
t_x_1535                                            1 	(obj:1)
t_x_1539                                            1 	(obj:5)
t_x_1541                                            1 	(obj:41)
t_x_1544                                            1 	(obj:18)
t_x_1546                                            1 	(obj:1)
t_x_1553                                            1 	(obj:49)
t_x_1554                                            1 	(obj:9)
t_x_1558                                            1 	(obj:34)
t_x_1564                                            1 	(obj:3)
t_x_1566                                            1 	(obj:14)
t_x_1577                                            1 	(obj:1)
t_x_1578                                            1 	(obj:11)
t_x_1579                                            1 	(obj:22)
t_x_1580                                            1 	(obj:22)
t_x_1581                                            1 	(obj:2)
t_x_1582                                            1 	(obj:39)
t_x_1584                                            1 	(obj:32)
t_x_1585                                            1 	(obj:6)
t_x_1586                                            1 	(obj:23)
t_x_1589                                            1 	(obj:4)
t_x_1590                                            1 	(obj:83)
t_x_1596                                            1 	(obj:9)
t_x_1598                                            1 	(obj:0)
t_x_1609                                            1 	(obj:31)
t_x_1611                                            1 	(obj:0)
t_x_1612                                            1 	(obj:9)
t_x_1614                                            1 	(obj:2)
t_x_1615                                            1 	(obj:12)
t_x_1622                                            1 	(obj:19)
t_x_1625                                            1 	(obj:36)
t_x_1627                                            1 	(obj:14)
t_x_1628                                            1 	(obj:0)
t_x_1630                                            1 	(obj:12)
t_x_1632                                            1 	(obj:47)
t_x_1635                                            1 	(obj:12)
t_x_1636                                            1 	(obj:4)
t_x_1637                                            1 	(obj:17)
t_x_1639                                            1 	(obj:23)
t_x_1641                                            1 	(obj:47)
t_x_1646                                            1 	(obj:18)
t_x_1649                                            1 	(obj:7)
t_x_1650                                            1 	(obj:12)
t_x_1652                                            1 	(obj:18)
t_x_1658                                            1 	(obj:2)
t_x_1662                                            1 	(obj:31)
t_x_1667                                            1 	(obj:49)
t_x_1669                                            1 	(obj:9)
t_x_1671                                            1 	(obj:18)
t_x_1678                                            1 	(obj:30)
t_x_1679                                            1 	(obj:13)
t_x_1681                                            1 	(obj:78)
t_x_1682                                            1 	(obj:14)
t_x_1684                                            1 	(obj:22)
t_x_1688                                            1 	(obj:25)
t_x_1690                                            1 	(obj:3)
t_x_1691                                            1 	(obj:96)
t_x_1693                                            1 	(obj:6)
t_x_1696                                            1 	(obj:2)
t_x_1703                                            1 	(obj:30)
t_x_1704                                            1 	(obj:21)
t_x_1718                                            1 	(obj:32)
t_x_1721                                            1 	(obj:18)
t_x_1722                                            1 	(obj:3)
t_x_1723                                            1 	(obj:48)
t_x_1724                                            1 	(obj:47)
t_x_1727                                            1 	(obj:3)
t_x_1731                                            1 	(obj:32)
t_x_1735                                            1 	(obj:5)
t_x_1736                                            1 	(obj:15)
t_x_1738                                            1 	(obj:33)
t_x_1739                                            1 	(obj:27)
t_x_1749                                            1 	(obj:2)
t_x_1753                                            1 	(obj:0)
t_x_1756                                            1 	(obj:27)
t_x_1764                                            1 	(obj:12)
t_x_1771                                            1 	(obj:15)
t_x_1784                                            1 	(obj:7)
t_x_1789                                            1 	(obj:9)
t_x_1795                                            1 	(obj:3)
t_x_1796                                            1 	(obj:18)
t_x_1800                                            1 	(obj:14)
t_x_1802                                            1 	(obj:1)
t_x_1805                                            1 	(obj:6)
t_x_1808                                            1 	(obj:8)
t_x_1816                                            1 	(obj:17)
t_x_1817                                            1 	(obj:9)
t_x_1827                                            1 	(obj:19)
t_x_1829                                            1 	(obj:10)
t_x_1832                                            1 	(obj:37)
t_x_1834                                            1 	(obj:12)
t_x_1835                                            1 	(obj:23)
t_x_1836                                            1 	(obj:39)
t_x_1837                                            1 	(obj:29)
t_x_1849                                            1 	(obj:16)
t_x_1850                                            1 	(obj:23)
t_x_1852                                            1 	(obj:30)
t_x_1853                                            1 	(obj:10)
t_x_1856                                            1 	(obj:29)
t_x_1858                                            1 	(obj:17)
t_x_1859                                            1 	(obj:25)
t_x_1860                                            1 	(obj:20)
t_x_1863                                            1 	(obj:13)
t_x_1866                                            1 	(obj:19)
t_x_1869                                            1 	(obj:24)
t_x_1871                                            1 	(obj:4)
t_x_1876                                            1 	(obj:22)
t_x_1877                                            1 	(obj:4)
t_x_1878                                            1 	(obj:25)
t_x_1880                                            1 	(obj:15)
t_x_1881                                            1 	(obj:44)
t_x_1884                                            1 	(obj:6)
t_x_1885                                            1 	(obj:17)
t_x_1890                                            1 	(obj:28)
t_x_1894                                            1 	(obj:30)
t_x_1898                                            1 	(obj:9)
t_x_1901                                            1 	(obj:3)
t_x_1902                                            1 	(obj:9)
t_x_1903                                            1 	(obj:0)
t_x_1908                                            1 	(obj:21)
t_x_1912                                            1 	(obj:49)
t_x_1915                                            1 	(obj:30)
t_x_1918                                            1 	(obj:3)
t_x_1919                                            1 	(obj:14)
t_x_1923                                            1 	(obj:39)
t_x_1928                                            1 	(obj:3)
t_x_1930                                            1 	(obj:8)
t_x_1932                                            1 	(obj:0)
t_x_1934                                            1 	(obj:7)
t_x_1938                                            1 	(obj:20)
t_x_1940                                            1 	(obj:18)
t_x_1942                                            1 	(obj:17)
t_x_1947                                            1 	(obj:4)
t_x_1950                                            1 	(obj:29)
t_x_1954                                            1 	(obj:24)
t_x_1962                                            1 	(obj:28)
t_x_1964                                            1 	(obj:24)
t_x_1967                                            1 	(obj:49)
t_x_1969                                            1 	(obj:78)
t_x_1971                                            1 	(obj:11)
t_x_1975                                            1 	(obj:35)
t_x_1977                                            1 	(obj:21)
t_x_1983                                            1 	(obj:7)
t_x_1985                                            1 	(obj:4)
t_x_1989                                            1 	(obj:23)
t_x_1996                                            1 	(obj:2)
t_x_1998                                            1 	(obj:6)
t_x_1999                                            1 	(obj:21)
